c status 35 1469388736981
c status 31 1469388736985
c status 30 1469388736994
c status 29 1469388737036
c status 28 1469388738363
s td 96 28 126
b 1 2 39 1 48
b 2 39 1 50 48 20
b 3 110 34 111 109
b 4 34 35 111 109 33
b 5 35 36 100 111 109 33
b 6 36 37 100 1 111 109 33
b 7 69 68 92 70
b 8 68 38 92 67 70
b 9 105 94 116 107
b 10 94 40 116 83 107
b 11 40 38 116 83 107 41
b 12 38 37 92 116 83 107 67 41 70
b 13 37 56 92 100 116 1 83 107 67 41 111 109 70 33
b 14 56 55 92 100 116 1 83 107 67 41 111 109 70 33 57
b 15 55 92 100 116 1 83 107 54 120 67 41 111 109 70 33 57
b 16 99 85 100 98
b 17 85 86 100 84 98
b 18 86 100 116 84 87 98
b 19 3 13 116 14
b 20 13 12 116 15 14
b 21 12 31 116 15 11 14
b 22 31 30 116 1 15 11 14
b 23 30 29 116 1 80 15 11 14
b 24 29 90 116 1 80 15 28 11 14
b 25 90 91 116 1 80 15 28 89 11 14
b 26 91 103 92 116 1 80 15 28 89 11 14
b 27 103 102 92 116 1 104 80 15 28 89 11 14
b 28 102 101 92 116 1 104 80 17 15 28 89 11 14
b 29 101 92 100 116 1 104 80 17 15 28 89 11 14 63
b 30 92 100 116 1 93 83 107 104 54 120 80 17 67 41 111 15 28 89 11 14 63 109 70 33 57
b 31 100 116 1 93 83 107 104 54 120 80 17 67 41 111 15 28 89 11 14 63 109 70 84 87 33 57 98
b 32 1 93 50 83 107 104 54 120 80 17 67 41 111 15 28 89 11 14 48 63 109 70 84 87 33 57 98 20
b 33 42 18 43 41
b 34 18 19 43 17 41
b 35 19 7 43 17 41 20
b 36 7 6 8 43 17 41 20
b 37 6 5 8 43 54 17 41 20
b 38 5 4 8 43 54 17 41 28 20
b 39 4 126 8 43 54 17 41 28 98 20
b 40 126 125 8 43 46 54 17 41 28 98 20
b 41 125 124 8 43 46 54 17 67 41 28 98 20
b 42 124 123 8 43 46 54 17 67 41 15 28 98 20
b 43 123 8 122 43 46 54 17 67 41 111 15 28 98 20
b 44 47 106 46 48
b 45 106 46 107 104 48
b 46 88 58 89 87
b 47 58 59 89 87 57
b 48 9 10 8 70
b 49 10 60 8 11 70
b 50 61 72 122 50
b 51 72 62 122 50 83
b 52 62 60 122 50 83 63
b 53 60 59 8 122 50 83 11 63 70
b 54 59 45 8 122 50 83 89 11 63 70 87 57
b 55 45 44 8 122 46 50 83 89 11 63 70 87 57
b 56 44 32 8 122 43 46 50 83 89 11 63 70 87 57
b 57 32 25 8 122 43 46 50 83 89 11 63 70 87 33 57
b 58 25 8 122 43 46 93 50 83 89 11 14 63 70 87 33 57
b 59 121 82 122 120
b 60 82 81 122 120 84
b 61 81 122 43 120 80 84
b 62 8 122 43 46 93 50 83 54 17 67 41 111 15 28 89 11 14 63 109 70 87 33 57 98 20
b 63 122 43 46 93 50 83 54 120 80 17 67 41 111 15 28 89 11 14 63 109 70 84 87 33 57 98 20
b 64 46 93 50 83 107 104 54 120 80 17 67 41 111 15 28 89 11 14 48 63 109 70 84 87 33 57 98 20
b 65 117 115 118 11
b 66 112 113 111 89
b 67 71 73 70 84
b 68 73 49 74 70 84
b 69 49 51 74 48 70 84
b 70 53 52 54 14
b 71 52 51 54 14 64
b 72 51 113 54 74 14 48 64 70 84
b 73 113 114 54 111 74 89 14 48 64 70 84
b 74 114 115 54 41 111 74 89 14 48 64 70 84
b 75 115 97 118 54 41 111 74 89 11 14 48 64 70 84
b 76 97 118 54 41 111 74 89 11 14 48 64 70 84 96 98
b 77 21 22 87 20
b 78 27 26 83 28
b 79 26 24 83 74 28
b 80 24 23 83 74 28 33
b 81 23 22 118 83 74 28 33
b 82 22 66 118 83 74 28 87 33 20
b 83 66 65 118 83 67 74 28 87 33 20
b 84 65 79 118 83 67 74 28 64 87 33 20
b 85 79 78 118 83 80 67 74 28 64 87 33 20
b 86 108 78 107 109
b 87 78 77 118 83 107 80 67 74 28 64 109 87 33 20
b 88 77 76 118 83 107 80 67 74 28 64 109 87 33 96 20
b 89 76 75 118 83 107 80 67 74 28 64 109 87 33 57 96 20
b 90 75 16 118 83 107 80 67 74 28 64 109 87 33 57 96 20
b 91 16 118 83 107 80 17 67 15 74 28 64 109 87 33 57 96 20
b 92 119 118 104 120
b 93 95 93 50 96
b 94 118 83 107 104 54 120 80 17 67 41 111 15 74 28 89 11 14 48 64 109 70 84 87 33 57 96 98 20
b 95 93 50 83 107 104 54 120 80 17 67 41 111 15 28 89 11 14 48 63 109 70 84 87 33 57 96 98 20
b 96 83 107 104 54 120 80 17 67 41 111 15 74 28 89 11 14 48 64 63 109 70 84 87 33 57 96 98 20
1 2
2 32
32 64
32 95
95 96
96 94
32 31
64 63
31 30
63 62
94 91
30 15
62 58
91 90
90 89
94 76
15 14
58 57
89 88
57 56
88 87
30 29
62 43
14 13
76 75
56 55
29 28
43 42
87 85
75 74
55 54
28 27
42 41
85 84
74 73
27 26
41 40
84 83
26 25
40 39
13 12
54 53
73 72
83 82
25 24
39 38
24 23
38 37
13 6
23 22
82 81
37 36
31 18
63 61
12 11
53 52
72 69
22 21
6 5
81 80
36 35
54 47
12 8
53 49
72 71
18 17
61 60
11 10
52 51
69 68
21 20
5 4
80 79
35 34
64 45
45 44
20 19
75 65
94 92
73 66
87 86
82 77
47 46
8 7
49 48
71 70
17 16
60 59
10 9
51 50
68 67
4 3
34 33
79 78
95 93
